
  25    0


   0  13 2 3 4 5 6 9 10 11 12 21 22 23 24 
   1   5 20 17 16 8 7 
   9   4 19 15 14 13 
   2   4 17 16 15 13 
   1   2 18 15 
  10   2 15 13 
   1   1 14 
   8   1 13 
   1   1 16 
   8   1 14 
   4   1 14 
   8   1 13 
   9   1 25
   5   1 25
   2   1 25
   2   1 25
   4   1 25
   8   1 25
   8   1 25
   2   1 25
   9   1 25
   6   1 25
   7   1 25
   2   1 25
   0   0 
